\ Model ajuste
\ LP format - for model browsing. Use MPS format to capture full model detail.
Minimize
  - 1.323362959395139e+09 coef_ajuste + 6.616814796975702e+08 Constant + [
   1.323362959394882e+09 coef_ajuste ^2 ] / 2 
Subject To
Bounds
 coef_ajuste <= 1
 Constant = 1
End
